certificates/rado_a11_c43_N20.cnf
c Rad2 upper bound instance: x1 + 11*x2 - x3 = 43, interval [1,20]
p cnf 20 72
1 2 4 0
-1 -2 -4 0
1 5 13 0
-1 -5 -13 0
2 3 4 0
-2 -3 -4 0
2 5 14 0
-2 -5 -14 0
3 4 0
-3 -4 0
3 5 15 0
-3 -5 -15 0
4 5 0
-4 -5 0
4 5 16 0
-4 -5 -16 0
4 5 6 0
-4 -5 -6 0
5 17 0
-5 -17 0
4 6 7 0
-4 -6 -7 0
5 6 18 0
-5 -6 -18 0
4 7 8 0
-4 -7 -8 0
5 7 19 0
-5 -7 -19 0
4 8 9 0
-4 -8 -9 0
5 8 20 0
-5 -8 -20 0
4 9 10 0
-4 -9 -10 0
4 10 11 0
-4 -10 -11 0
1 3 11 0
-1 -3 -11 0
4 11 12 0
-4 -11 -12 0
2 3 12 0
-2 -3 -12 0
4 12 13 0
-4 -12 -13 0
3 13 0
-3 -13 0
4 13 14 0
-4 -13 -14 0
3 4 14 0
-3 -4 -14 0
4 14 15 0
-4 -14 -15 0
4 15 16 0
-4 -15 -16 0
3 6 16 0
-3 -6 -16 0
4 16 17 0
-4 -16 -17 0
3 7 17 0
-3 -7 -17 0
4 17 18 0
-4 -17 -18 0
3 8 18 0
-3 -8 -18 0
4 18 19 0
-4 -18 -19 0
3 9 19 0
-3 -9 -19 0
4 19 20 0
-4 -19 -20 0
3 10 20 0
-3 -10 -20 0
