certificates/rado_a11_c43_N20.drat
-19 -20 0
d -19 -4 -20 0
9 10 19 0
-4 -9 0
10 19 0
d 9 10 19 0
-20 0
19 0
-4 -10 0
4 0
-3 0
-5 0
-9 0
-18 0
-10 0
13 0
0
